c t wmc
c file mc2022_track2_001.cnf
p cnf 140 350
-28 71 0
-50 71 0
-9 71 0
-39 71 0
-71 28 50 9 39 0
-47 72 0
-36 72 0
-13 72 0
-29 72 0
-72 47 36 13 29 0
-66 73 0
-35 73 0
-53 73 0
-31 73 0
-73 66 35 53 31 0
-62 74 0
-68 74 0
-31 74 0
-55 74 0
-74 62 68 31 55 0
-61 75 0
-3 75 0
-5 75 0
-8 75 0
-75 61 3 5 8 0
-8 76 0
-52 76 0
-62 76 0
-61 76 0
-76 8 52 62 61 0
-19 77 0
-11 77 0
-66 77 0
-9 77 0
-77 19 11 66 9 0
-23 78 0
-63 78 0
-48 78 0
-14 78 0
-78 23 63 48 14 0
-13 79 0
-16 79 0
-60 79 0
-49 79 0
-79 13 16 60 49 0
-40 80 0
-19 80 0
-44 80 0
-4 80 0
-80 40 19 44 4 0
-1 81 0
-16 81 0
-7 81 0
-11 81 0
-81 1 16 7 11 0
-58 82 0
-61 82 0
-13 82 0
-48 82 0
-82 58 61 13 48 0
-6 83 0
-17 83 0
-56 83 0
-13 83 0
-83 6 17 56 13 0
-10 84 0
-59 84 0
-3 84 0
-41 84 0
-84 10 59 3 41 0
-69 85 0
-68 85 0
-49 85 0
-33 85 0
-85 69 68 49 33 0
-2 86 0
-26 86 0
-46 86 0
-14 86 0
-86 2 26 46 14 0
-53 87 0
-36 87 0
-62 87 0
-22 87 0
-87 53 36 62 22 0
-66 88 0
-47 88 0
-37 88 0
-8 88 0
-88 66 47 37 8 0
-63 89 0
-44 89 0
-18 89 0
-50 89 0
-89 63 44 18 50 0
-46 90 0
-42 90 0
-40 90 0
-51 90 0
-90 46 42 40 51 0
-59 91 0
-37 91 0
-5 91 0
-10 91 0
-91 59 37 5 10 0
-25 92 0
-7 92 0
-62 92 0
-35 92 0
-92 25 7 62 35 0
-16 93 0
-40 93 0
-68 93 0
-17 93 0
-93 16 40 68 17 0
-7 94 0
-55 94 0
-43 94 0
-59 94 0
-94 7 55 43 59 0
-32 95 0
-34 95 0
-22 95 0
-27 95 0
-95 32 34 22 27 0
-23 96 0
-59 96 0
-35 96 0
-15 96 0
-96 23 59 35 15 0
-44 97 0
-64 97 0
-6 97 0
-31 97 0
-97 44 64 6 31 0
-36 98 0
-57 98 0
-24 98 0
-23 98 0
-98 36 57 24 23 0
-28 99 0
-57 99 0
-47 99 0
-49 99 0
-99 28 57 47 49 0
-12 100 0
-62 100 0
-30 100 0
-21 100 0
-100 12 62 30 21 0
-21 101 0
-37 101 0
-17 101 0
-63 101 0
-101 21 37 17 63 0
-25 102 0
-49 102 0
-38 102 0
-59 102 0
-102 25 49 38 59 0
-17 103 0
-60 103 0
-59 103 0
-63 103 0
-103 17 60 59 63 0
-16 104 0
-32 104 0
-57 104 0
-34 104 0
-104 16 32 57 34 0
-4 105 0
-34 105 0
-20 105 0
-27 105 0
-105 4 34 20 27 0
-11 106 0
-43 106 0
-67 106 0
-9 106 0
-106 11 43 67 9 0
-19 107 0
-43 107 0
-57 107 0
-42 107 0
-107 19 43 57 42 0
-46 108 0
-29 108 0
-4 108 0
-66 108 0
-108 46 29 4 66 0
-65 109 0
-21 109 0
-70 109 0
-31 109 0
-109 65 21 70 31 0
-69 110 0
-50 110 0
-19 110 0
-15 110 0
-110 69 50 19 15 0
-39 111 0
-7 111 0
-20 111 0
-55 111 0
-111 39 7 20 55 0
-50 112 0
-6 112 0
-30 112 0
-54 112 0
-112 50 6 30 54 0
-51 113 0
-49 113 0
-22 113 0
-3 113 0
-113 51 49 22 3 0
-21 114 0
-18 114 0
-11 114 0
-52 114 0
-114 21 18 11 52 0
-60 115 0
-10 115 0
-35 115 0
-36 115 0
-115 60 10 35 36 0
-38 116 0
-39 116 0
-43 116 0
-44 116 0
-116 38 39 43 44 0
-1 117 0
-55 117 0
-4 117 0
-69 117 0
-117 1 55 4 69 0
-34 118 0
-23 118 0
-25 118 0
-14 118 0
-118 34 23 25 14 0
-29 119 0
-44 119 0
-68 119 0
-21 119 0
-119 29 44 68 21 0
-61 120 0
-27 120 0
-4 120 0
-53 120 0
-120 61 27 4 53 0
-18 121 0
-25 121 0
-55 121 0
-38 121 0
-121 18 25 55 38 0
-55 122 0
-66 122 0
-31 122 0
-44 122 0
-122 55 66 31 44 0
-17 123 0
-66 123 0
-21 123 0
-54 123 0
-123 17 66 21 54 0
-34 124 0
-6 124 0
-27 124 0
-46 124 0
-124 34 6 27 46 0
-60 125 0
-30 125 0
-56 125 0
-35 125 0
-125 60 30 56 35 0
-64 126 0
-10 126 0
-48 126 0
-35 126 0
-126 64 10 48 35 0
-66 127 0
-58 127 0
-55 127 0
-68 127 0
-127 66 58 55 68 0
-26 128 0
-70 128 0
-63 128 0
-43 128 0
-128 26 70 63 43 0
-36 129 0
-47 129 0
-23 129 0
-20 129 0
-129 36 47 23 20 0
-54 130 0
-53 130 0
-6 130 0
-70 130 0
-130 54 53 6 70 0
-48 131 0
-26 131 0
-65 131 0
-23 131 0
-131 48 26 65 23 0
-43 132 0
-21 132 0
-68 132 0
-44 132 0
-132 43 21 68 44 0
-63 133 0
-53 133 0
-8 133 0
-68 133 0
-133 63 53 8 68 0
-5 134 0
-68 134 0
-32 134 0
-12 134 0
-134 5 68 32 12 0
-55 135 0
-28 135 0
-21 135 0
-22 135 0
-135 55 28 21 22 0
-39 136 0
-13 136 0
-65 136 0
-5 136 0
-136 39 13 65 5 0
-2 137 0
-17 137 0
-24 137 0
-55 137 0
-137 2 17 24 55 0
-69 138 0
-41 138 0
-67 138 0
-59 138 0
-138 69 41 67 59 0
-67 139 0
-61 139 0
-11 139 0
-51 139 0
-139 67 61 11 51 0
-24 140 0
-21 140 0
-25 140 0
-16 140 0
-140 24 21 25 16 0
c p weight 1 0.5 0
c p weight -1 0.5 0
c p weight 2 0.5 0
c p weight -2 0.5 0
c p weight 3 0.5 0
c p weight -3 0.5 0
c p weight 4 0.5 0
c p weight -4 0.5 0
c p weight 5 0.5 0
c p weight -5 0.5 0
c p weight 6 0.5 0
c p weight -6 0.5 0
c p weight 7 0.5 0
c p weight -7 0.5 0
c p weight 8 0.5 0
c p weight -8 0.5 0
c p weight 9 0.5 0
c p weight -9 0.5 0
c p weight 10 0.5 0
c p weight -10 0.5 0
c p weight 11 0.5 0
c p weight -11 0.5 0
c p weight 12 0.5 0
c p weight -12 0.5 0
c p weight 13 0.5 0
c p weight -13 0.5 0
c p weight 14 0.5 0
c p weight -14 0.5 0
c p weight 15 0.5 0
c p weight -15 0.5 0
c p weight 16 0.5 0
c p weight -16 0.5 0
c p weight 17 0.5 0
c p weight -17 0.5 0
c p weight 18 0.5 0
c p weight -18 0.5 0
c p weight 19 0.5 0
c p weight -19 0.5 0
c p weight 20 0.5 0
c p weight -20 0.5 0
c p weight 21 0.5 0
c p weight -21 0.5 0
c p weight 22 0.5 0
c p weight -22 0.5 0
c p weight 23 0.5 0
c p weight -23 0.5 0
c p weight 24 0.5 0
c p weight -24 0.5 0
c p weight 25 0.5 0
c p weight -25 0.5 0
c p weight 26 0.5 0
c p weight -26 0.5 0
c p weight 27 0.5 0
c p weight -27 0.5 0
c p weight 28 0.5 0
c p weight -28 0.5 0
c p weight 29 0.5 0
c p weight -29 0.5 0
c p weight 30 0.5 0
c p weight -30 0.5 0
c p weight 31 0.5 0
c p weight -31 0.5 0
c p weight 32 0.5 0
c p weight -32 0.5 0
c p weight 33 0.5 0
c p weight -33 0.5 0
c p weight 34 0.5 0
c p weight -34 0.5 0
c p weight 35 0.5 0
c p weight -35 0.5 0
c p weight 36 0.5 0
c p weight -36 0.5 0
c p weight 37 0.5 0
c p weight -37 0.5 0
c p weight 38 0.5 0
c p weight -38 0.5 0
c p weight 39 0.5 0
c p weight -39 0.5 0
c p weight 40 0.5 0
c p weight -40 0.5 0
c p weight 41 0.5 0
c p weight -41 0.5 0
c p weight 42 0.5 0
c p weight -42 0.5 0
c p weight 43 0.5 0
c p weight -43 0.5 0
c p weight 44 0.5 0
c p weight -44 0.5 0
c p weight 45 0.5 0
c p weight -45 0.5 0
c p weight 46 0.5 0
c p weight -46 0.5 0
c p weight 47 0.5 0
c p weight -47 0.5 0
c p weight 48 0.5 0
c p weight -48 0.5 0
c p weight 49 0.5 0
c p weight -49 0.5 0
c p weight 50 0.5 0
c p weight -50 0.5 0
c p weight 51 0.5 0
c p weight -51 0.5 0
c p weight 52 0.5 0
c p weight -52 0.5 0
c p weight 53 0.5 0
c p weight -53 0.5 0
c p weight 54 0.5 0
c p weight -54 0.5 0
c p weight 55 0.5 0
c p weight -55 0.5 0
c p weight 56 0.5 0
c p weight -56 0.5 0
c p weight 57 0.5 0
c p weight -57 0.5 0
c p weight 58 0.5 0
c p weight -58 0.5 0
c p weight 59 0.5 0
c p weight -59 0.5 0
c p weight 60 0.5 0
c p weight -60 0.5 0
c p weight 61 0.5 0
c p weight -61 0.5 0
c p weight 62 0.5 0
c p weight -62 0.5 0
c p weight 63 0.5 0
c p weight -63 0.5 0
c p weight 64 0.5 0
c p weight -64 0.5 0
c p weight 65 0.5 0
c p weight -65 0.5 0
c p weight 66 0.5 0
c p weight -66 0.5 0
c p weight 67 0.5 0
c p weight -67 0.5 0
c p weight 68 0.5 0
c p weight -68 0.5 0
c p weight 69 0.5 0
c p weight -69 0.5 0
c p weight 70 0.5 0
c p weight -70 0.5 0
c p weight 71 0.99786436 0
c p weight -71 0.00213564 0
c p weight 72 0.99485578 0
c p weight -72 0.00514422 0
c p weight 73 0.99884195 0
c p weight -73 0.00115805 0
c p weight 74 0.98391976 0
c p weight -74 0.01608024 0
c p weight 75 0.99510815 0
c p weight -75 0.00489185 0
c p weight 76 0.98188849 0
c p weight -76 0.01811151 0
c p weight 77 0.9816929 0
c p weight -77 0.0183071 0
c p weight 78 0.9872122 0
c p weight -78 0.0127878 0
c p weight 79 0.99352527 0
c p weight -79 0.00647473 0
c p weight 80 0.99901162 0
c p weight -80 0.00098838 0
c p weight 81 0.98185147 0
c p weight -81 0.01814853 0
c p weight 82 0.99987269 0
c p weight -82 0.00012731 0
c p weight 83 0.98657711 0
c p weight -83 0.01342289 0
c p weight 84 0.99604116 0
c p weight -84 0.00395884 0
c p weight 85 0.99778347 0
c p weight -85 0.00221653 0
c p weight 86 0.99546494 0
c p weight -86 0.00453506 0
c p weight 87 0.99437564 0
c p weight -87 0.00562436 0
c p weight 88 0.98792075 0
c p weight -88 0.01207925 0
c p weight 89 0.99226988 0
c p weight -89 0.00773012 0
c p weight 90 0.98454179 0
c p weight -90 0.01545821 0
c p weight 91 0.99780774 0
c p weight -91 0.00219226 0
c p weight 92 0.98212481 0
c p weight -92 0.01787519 0
c p weight 93 0.98570305 0
c p weight -93 0.01429695 0
c p weight 94 0.98751793 0
c p weight -94 0.01248207 0
c p weight 95 0.98853337 0
c p weight -95 0.01146663 0
c p weight 96 0.98856391 0
c p weight -96 0.01143609 0
c p weight 97 0.99133132 0
c p weight -97 0.00866868 0
c p weight 98 0.98392101 0
c p weight -98 0.01607899 0
c p weight 99 0.98210869 0
c p weight -99 0.01789131 0
c p weight 100 0.99929316 0
c p weight -100 0.00070684 0
c p weight 101 0.9982172 0
c p weight -101 0.0017828 0
c p weight 102 0.98659054 0
c p weight -102 0.01340946 0
c p weight 103 0.98116484 0
c p weight -103 0.01883516 0
c p weight 104 0.99526728 0
c p weight -104 0.00473272 0
c p weight 105 0.98575447 0
c p weight -105 0.01424553 0
c p weight 106 0.99833123 0
c p weight -106 0.00166877 0
c p weight 107 0.98049561 0
c p weight -107 0.01950439 0
c p weight 108 0.99369929 0
c p weight -108 0.00630071 0
c p weight 109 0.9918677 0
c p weight -109 0.0081323 0
c p weight 110 0.99021872 0
c p weight -110 0.00978128 0
c p weight 111 0.99631067 0
c p weight -111 0.00368933 0
c p weight 112 0.98438573 0
c p weight -112 0.01561427 0
c p weight 113 0.98221046 0
c p weight -113 0.01778954 0
c p weight 114 0.99189078 0
c p weight -114 0.00810922 0
c p weight 115 0.98263406 0
c p weight -115 0.01736594 0
c p weight 116 0.9807332 0
c p weight -116 0.0192668 0
c p weight 117 0.99724091 0
c p weight -117 0.00275909 0
c p weight 118 0.99974047 0
c p weight -118 0.00025953 0
c p weight 119 0.99160092 0
c p weight -119 0.00839908 0
c p weight 120 0.99271094 0
c p weight -120 0.00728906 0
c p weight 121 0.98325056 0
c p weight -121 0.01674944 0
c p weight 122 0.98646382 0
c p weight -122 0.01353618 0
c p weight 123 0.98921563 0
c p weight -123 0.01078437 0
c p weight 124 0.98278137 0
c p weight -124 0.01721863 0
c p weight 125 0.99468378 0
c p weight -125 0.00531622 0
c p weight 126 0.99568862 0
c p weight -126 0.00431138 0
c p weight 127 0.98767964 0
c p weight -127 0.01232036 0
c p weight 128 0.99089174 0
c p weight -128 0.00910826 0
c p weight 129 0.98785132 0
c p weight -129 0.01214868 0
c p weight 130 0.99512093 0
c p weight -130 0.00487907 0
c p weight 131 0.99817526 0
c p weight -131 0.00182474 0
c p weight 132 0.99965368 0
c p weight -132 0.00034632 0
c p weight 133 0.9903424 0
c p weight -133 0.0096576 0
c p weight 134 0.98307391 0
c p weight -134 0.01692609 0
c p weight 135 0.98484426 0
c p weight -135 0.01515574 0
c p weight 136 0.99734919 0
c p weight -136 0.00265081 0
c p weight 137 0.9931737 0
c p weight -137 0.0068263 0
c p weight 138 0.98659668 0
c p weight -138 0.01340332 0
c p weight 139 0.99201824 0
c p weight -139 0.00798176 0
c p weight 140 0.99610792 0
c p weight -140 0.00389208 0
